c This is QMaxSAT 2017 based on 14.07
c This is Glucose 3.0
c This is MiniSat 2.2.0
c WARNING: for repeatability, setting FPU to use double precision
c card = mrwto, comp = 0, pmodel = 0, narr = 9, mct = 52, verb = 0
cr firstCPXsol 0 0 0
c top = 1525567
c |  Number of variables:    154386                                           |
c |  Number of clauses:      173400528                                        |
c |  Weight of hard clauses: 1525567                                          |
c |  Number of soft clauses: 23868                                            |
c |  Number of unit soft clauses: 23868                                       |
c |  Maximum Cardinality (by unit): 13730094     (13730094    )               |
c last restart ## conflicts  :  17 45454 
o 6908 | cpuTime 37.0847 s
c Sum of weights = 1525566
c A number of soft clauses remained = 2652
c MRWTO encoding for Pseudo-Boolean Constraints
c sizeMax=6908
c No.0 Divisor=10	generated by pow1
c No.1 Divisor=9	generated by pow1
c No.2 Divisor=10	generated by pow1
c No.3 Divisor=10	generated by pow1
c p0= 10	p1= 9	p2= 10	p3= 10	
c number of digits = 5
c linkingVar[0].size = 10, linkingVar[1].size = 9, linkingVar[2].size = 10, linkingVar[3].size = 8, linkingVar[4].size = 1, 
c Pseudo-Boolean Constraints: 69828 variables and 594828 clauses
c Sum of weights = 1525566
c A number of soft clauses remained = 2652
c MRWTO encoding for Pseudo-Boolean Constraints
c sizeMax=6908
c No.0 Divisor=10	generated by pow1
c No.1 Divisor=9	generated by pow1
c No.2 Divisor=10	generated by pow1
c No.3 Divisor=10	generated by pow1
c p0= 10	p1= 9	p2= 10	p3= 10	
c number of digits = 5
c linkingVar[0].size = 10, linkingVar[1].size = 9, linkingVar[2].size = 10, linkingVar[3].size = 8, linkingVar[4].size = 1, 
c Pseudo-Boolean Constraints: 69828 variables and 594828 clauses
c Sum of weights = 1525566
c A number of soft clauses remained = 2652
c MRWTO encoding for Pseudo-Boolean Constraints
c sizeMax=6908
c No.0 Divisor=10	generated by pow1
c No.1 Divisor=9	generated by pow1
c No.2 Divisor=10	generated by pow1
c No.3 Divisor=10	generated by pow1
c p0= 10	p1= 9	p2= 10	p3= 10	
c number of digits = 5
c linkingVar[0].size = 10, linkingVar[1].size = 9, linkingVar[2].size = 10, linkingVar[3].size = 8, linkingVar[4].size = 1, 
c Pseudo-Boolean Constraints: 69828 variables and 594828 clauses
c Sum of weights = 1525566
c A number of soft clauses remained = 2652
c MRWTO encoding for Pseudo-Boolean Constraints
c sizeMax=6908
c No.0 Divisor=10	generated by pow1
c No.1 Divisor=9	generated by pow1
c No.2 Divisor=10	generated by pow1
c No.3 Divisor=10	generated by pow1
c p0= 10	p1= 9	p2= 10	p3= 10	
c number of digits = 5
c linkingVar[0].size = 10, linkingVar[1].size = 9, linkingVar[2].size = 10, linkingVar[3].size = 8, linkingVar[4].size = 1, 
c Pseudo-Boolean Constraints: 69828 variables and 594828 clauses
c Sum of weights = 1525566
c A number of soft clauses remained = 2652
c MRWTO encoding for Pseudo-Boolean Constraints
c sizeMax=6908
c No.0 Divisor=10	generated by pow1
c No.1 Divisor=9	generated by pow1
c No.2 Divisor=10	generated by pow1
c No.3 Divisor=10	generated by pow1
c p0= 10	p1= 9	p2= 10	p3= 10	
c number of digits = 5
c linkingVar[0].size = 10, linkingVar[1].size = 9, linkingVar[2].size = 10, linkingVar[3].size = 8, linkingVar[4].size = 1, 
c Pseudo-Boolean Constraints: 69828 variables and 594828 clauses
c Sum of weights = 1525566
c A number of soft clauses remained = 2652
c MRWTO encoding for Pseudo-Boolean Constraints
c sizeMax=6908
c No.0 Divisor=10	generated by pow1
c No.1 Divisor=9	generated by pow1
c No.2 Divisor=10	generated by pow1
c No.3 Divisor=10	generated by pow1
c p0= 10	p1= 9	p2= 10	p3= 10	
c number of digits = 5
c linkingVar[0].size = 10, linkingVar[1].size = 9, linkingVar[2].size = 10, linkingVar[3].size = 8, linkingVar[4].size = 1, 
c Pseudo-Boolean Constraints: 69828 variables and 594828 clauses
c Sum of weights = 1525566
c A number of soft clauses remained = 2652
c MRWTO encoding for Pseudo-Boolean Constraints
c sizeMax=6908
c No.0 Divisor=10	generated by pow1
c No.1 Divisor=9	generated by pow1
c No.2 Divisor=10	generated by pow1
c No.3 Divisor=10	generated by pow1
c p0= 10	p1= 9	p2= 10	p3= 10	
c number of digits = 5
c linkingVar[0].size = 10, linkingVar[1].size = 9, linkingVar[2].size = 10, linkingVar[3].size = 8, linkingVar[4].size = 1, 
c Pseudo-Boolean Constraints: 69828 variables and 594828 clauses
c Sum of weights = 1525566
c A number of soft clauses remained = 2652
c MRWTO encoding for Pseudo-Boolean Constraints
c sizeMax=6908
c No.0 Divisor=10	generated by pow1
c No.1 Divisor=9	generated by pow1
c No.2 Divisor=10	generated by pow1
c No.3 Divisor=10	generated by pow1
c p0= 10	p1= 9	p2= 10	p3= 10	
c number of digits = 5
c linkingVar[0].size = 10, linkingVar[1].size = 9, linkingVar[2].size = 10, linkingVar[3].size = 8, linkingVar[4].size = 1, 
c Pseudo-Boolean Constraints: 69828 variables and 594828 clauses
c Sum of weights = 1525566
c A number of soft clauses remained = 2652
c MRWTO encoding for Pseudo-Boolean Constraints
c sizeMax=6908
c No.0 Divisor=10	generated by pow1
c No.1 Divisor=9	generated by pow1
c No.2 Divisor=10	generated by pow1
c No.3 Divisor=10	generated by pow1
c p0= 10	p1= 9	p2= 10	p3= 10	
c number of digits = 5
c linkingVar[0].size = 10, linkingVar[1].size = 9, linkingVar[2].size = 10, linkingVar[3].size = 8, linkingVar[4].size = 1, 
c Pseudo-Boolean Constraints: 69828 variables and 594828 clauses
c last restart ## conflicts  :  206 116704 
o 6420 | cpuTime 40.1673 s
c last restart ## conflicts  :  263 79200 
o 5229 | cpuTime 493.835 s
c last restart ## conflicts  :  456 76249 
o 4622 | cpuTime 1225.62 s
c last restart ## conflicts  :  1333 52336 
o 4392 | cpuTime 1768.4 s
c last restart ## conflicts  :  3153 54748 
o 4121 | cpuTime 2176.68 s
c last restart ## conflicts  :  1371 75121 
o 3842 | cpuTime 2932.99 s
s UNKNOWN
c Search is stopped by a limit (maybe time-limit)
cr positiVarArr: [ | 2@1(1->2) | 86@1(2->34) | 1751@1(34->35) | 1804@1(35->36) | 1869@1(36->49) | 2497@1(49->1) | 2735@2(1->31) | 3030@2(7->14) | 3236@2(11->12) | 3277@2(12->1) | 3391@2(14->11) | 4271@2(31->7) | 5428@3(1->20) | 5865@3(9->41) | 6259@3(17->19) | 6377@3(19->33) | 6434@3(20->38) | 7073@3(33->1) | 7371@3(38->39) | 7393@3(39->9) | 7505@3(41->17) | 8162@4(1->50) | 8781@4(13->45) | 9018@4(18->22) | 9248@4(22->44) | 9340@4(24->32) | 9373@4(25->13) | 9725@4(32->1) | 10032@4(37->48) | 10385@4(44->37) | 10418@4(45->18) | 10580@4(48->24) | 10685@4(50->25) | 10842@5(1->26) | 12143@5(26->27) | 12208@5(27->40) | 12845@5(40->1) | 13541@6(1->21) | 13625@6(3->1) | 13744@6(5->16) | 14253@6(15->5) | 14303@6(16->3) | 14602@6(21->42) | 15703@6(42->51) | 16135@6(51->15) | 16252@7(1->28) | 17629@7(28->1) | 18974@8(1->46) | 19085@8(4->1) | 19192@8(6->4) | 19439@8(10->43) | 20390@8(29->6) | 20465@8(30->29) | 21142@8(43->30) | 21278@8(46->10) | 21679@9(1->47) | 21997@9(8->1) | 22784@9(23->8) | 24076@9(47->52) | 24307@9(52->23) | ]
cr the 1-th chain: [ 1->2->34->35->36->49->1 ] (#non-depot=5) {#cumul.=6}
cr the 2-th chain: [ 1->31->7->14->11->12->1 ] (#non-depot=5) {#cumul.=11}
cr the 3-th chain: [ 1->20->38->39->9->41->17->19->33->1 ] (#non-depot=8) {#cumul.=19}
cr the 4-th chain: [ 1->50->25->13->45->18->22->44->37->48->24->32->1 ] (#non-depot=11) {#cumul.=30}
cr the 5-th chain: [ 1->26->27->40->1 ] (#non-depot=3) {#cumul.=33}
cr the 6-th chain: [ 1->21->42->51->15->5->16->3->1 ] (#non-depot=7) {#cumul.=40}
cr the 7-th chain: [ 1->28->1 ] (#non-depot=1) {#cumul.=41}
cr the 8-th chain: [ 1->46->10->43->30->29->6->4->1 ] (#non-depot=7) {#cumul.=48}
cr the 9-th chain: [ 1->47->52->23->8->1 ] (#non-depot=4) {#cumul.=52}
c Latest Answer = 0 by 7 loops
c restarts              : 30457
c conflicts             : 5027389        (1404 /sec)
c decisions             : 403258666      (0.00 % random) (112609 /sec)
c propagations          : 20822520784    (5814649 /sec)
c conflict literals     : 3233972182     (9.75 % deleted)
c Memory used           : 14404.00 MB
c CPU time              : 3581.05 s
